examples/data/binpacking/Istanze/BPPC_5_8_3.txt
60 1000
1 494 2 3 4 5 6 7 8 9 10 11 12 13 14 15 16 17 18 19 20 21 22 23 24 25 26 27 28 29 30 31 32 33 34 35 36 37 38 39 40 41 42 43 44 45 46 47 48 49 50 51 52 53 54 55 56 57 58 59 60
2 250 3 4 5 6 8 9 11 12 14 15 16 17 18 19 20 21 23 24 25 26 27 28 29 32 33 34 35 36 37 39 40 41 42 43 47 48 49 50 51 52 54 56 57 59 60
3 256 4 5 6 8 9 11 12 13 14 15 16 17 18 19 20 21 22 23 24 25 26 27 28 29 31 32 33 34 35 36 37 39 40 41 42 43 47 48 49 50 51 52 53 54 55 56 57 58 59 60
4 429 5 6 7 8 9 10 11 12 13 14 15 16 17 18 19 20 21 22 23 24 25 26 27 28 29 30 31 32 33 34 35 36 37 38 39 40 41 42 43 44 45 46 47 48 49 50 51 52 53 54 55 56 57 58 59 60
5 266 6 8 9 11 12 14 15 16 17 18 19 20 21 23 24 25 26 27 28 29 31 32 33 34 35 36 37 39 40 41 42 43 47 48 49 50 51 52 54 55 56 57 58 59 60
6 305 7 8 9 10 11 12 13 14 15 16 17 18 19 20 21 22 23 24 25 26 27 28 29 30 31 32 33 34 35 36 37 38 39 40 41 42 43 44 45 46 47 48 49 50 51 52 53 54 55 56 57 58 59 60
7 378 8 9 11 14 15 16 17 18 19 20 21 23 24 25 26 27 28 29 32 33 34 35 36 37 39 40 41 43 47 48 49 50 51 52 54 56 57
8 268 9 10 11 12 13 14 15 16 17 18 19 20 21 22 23 24 25 26 27 28 29 30 31 32 33 34 35 36 37 38 39 40 41 42 43 44 45 46 47 48 49 50 51 52 53 54 55 56 57 58 59 60
9 354 11 12 13 14 15 16 17 18 19 20 21 22 23 24 25 26 27 28 29 31 32 33 34 35 36 37 38 39 40 41 42 43 44 45 46 47 48 49 50 51 52 53 54 55 56 57 58 59 60
10 482 14 15 16 17 18 19 20 24 25 26 27 28 29 32 33 34 35 36 37 39 40 43 47 48 50 51 52 54 56 57
11 251 12 13 14 15 16 17 18 19 20 21 22 23 24 25 26 27 28 29 30 31 32 33 34 35 36 37 38 39 40 41 42 43 44 45 46 47 48 49 50 51 52 53 54 55 56 57 58 59 60
12 267 14 15 16 17 18 19 20 21 23 24 25 26 27 28 29 31 32 33 34 35 36 37 39 40 41 42 43 47 48 49 50 51 52 54 55 56 57 58 59 60
13 464 14 15 16 17 18 19 20 21 23 24 25 26 27 28 29 32 33 34 35 36 37 39 40 41 43 47 48 49 50 51 52 54 56 57
14 259 15 16 17 18 19 20 21 22 23 24 25 26 27 28 29 30 31 32 33 34 35 36 37 38 39 40 41 42 43 44 45 46 47 48 49 50 51 52 53 54 55 56 57 58 59 60
15 277 16 17 18 19 20 21 22 23 24 25 26 27 28 29 30 31 32 33 34 35 36 37 38 39 40 41 42 43 44 45 46 47 48 49 50 51 52 53 54 55 56 57 58 59 60
16 398 17 18 19 20 21 22 23 24 25 26 27 28 29 30 31 32 33 34 35 36 37 38 39 40 41 42 43 44 45 46 47 48 49 50 51 52 53 54 55 56 57 58 59 60
17 276 18 19 20 21 22 23 24 25 26 27 28 29 30 31 32 33 34 35 36 37 38 39 40 41 42 43 44 45 46 47 48 49 50 51 52 53 54 55 56 57 58 59 60
18 326 19 20 21 22 23 24 25 26 27 28 29 30 31 32 33 34 35 36 37 38 39 40 41 42 43 44 45 46 47 48 49 50 51 52 53 54 55 56 57 58 59 60
19 390 20 21 22 23 24 25 26 27 28 29 30 31 32 33 34 35 36 37 38 39 40 41 42 43 44 45 46 47 48 49 50 51 52 53 54 55 56 57 58 59 60
20 260 21 22 23 24 25 26 27 28 29 30 31 32 33 34 35 36 37 38 39 40 41 42 43 44 45 46 47 48 49 50 51 52 53 54 55 56 57 58 59 60
21 350 22 23 24 25 26 27 28 29 31 32 33 34 35 36 37 39 40 41 42 43 47 48 49 50 51 52 53 54 55 56 57 58 59 60
22 482 23 24 25 26 27 28 29 32 33 34 35 36 37 39 40 41 43 47 48 49 50 51 52 54 56 57
23 251 24 25 26 27 28 29 31 32 33 34 35 36 37 38 39 40 41 42 43 45 47 48 49 50 51 52 53 54 55 56 57 58 59 60
24 267 25 26 27 28 29 30 31 32 33 34 35 36 37 38 39 40 41 42 43 44 45 46 47 48 49 50 51 52 53 54 55 56 57 58 59 60
25 430 26 27 28 29 30 31 32 33 34 35 36 37 38 39 40 41 42 43 44 45 46 47 48 49 50 51 52 53 54 55 56 57 58 59 60
26 262 27 28 29 30 31 32 33 34 35 36 37 38 39 40 41 42 43 44 45 46 47 48 49 50 51 52 53 54 55 56 57 58 59 60
27 308 28 29 30 31 32 33 34 35 36 37 38 39 40 41 42 43 44 45 46 47 48 49 50 51 52 53 54 55 56 57 58 59 60
28 400 29 30 31 32 33 34 35 36 37 38 39 40 41 42 43 44 45 46 47 48 49 50 51 52 53 54 55 56 57 58 59 60
29 261 30 31 32 33 34 35 36 37 38 39 40 41 42 43 44 45 46 47 48 49 50 51 52 53 54 55 56 57 58 59 60
30 339 32 33 34 35 36 37 39 40 43 47 48 50 51 52 54 56 57
31 498 32 33 34 35 36 37 39 40 41 42 43 47 48 49 50 51 52 54 55 56 57 59 60
32 250 33 34 35 36 37 38 39 40 41 42 43 44 45 46 47 48 49 50 51 52 53 54 55 56 57 58 59 60
33 252 34 35 36 37 38 39 40 41 42 43 44 45 46 47 48 49 50 51 52 53 54 55 56 57 58 59 60
34 362 35 36 37 38 39 40 41 42 43 44 45 46 47 48 49 50 51 52 53 54 55 56 57 58 59 60
35 288 36 37 38 39 40 41 42 43 44 45 46 47 48 49 50 51 52 53 54 55 56 57 58 59 60
36 350 37 38 39 40 41 42 43 44 45 46 47 48 49 50 51 52 53 54 55 56 57 58 59 60
37 498 38 39 40 41 42 43 44 45 46 47 48 49 50 51 52 53 54 55 56 57 58 59 60
38 250 39 40 43 47 48 49 50 51 52 54 56 57
39 252 40 41 42 43 44 45 46 47 48 49 50 51 52 53 54 55 56 57 58 59 60
40 459 41 42 43 44 45 46 47 48 49 50 51 52 53 54 55 56 57 58 59 60
41 260 42 43 47 48 49 50 51 52 53 54 55 56 57 58 59 60
42 281 43 47 48 49 50 51 52 53 54 55 56 57 58 59 60
43 401 44 45 46 47 48 49 50 51 52 53 54 55 56 57 58 59 60
44 271 47 48 49 50 51 52 54 56 57
45 328 47 48 49 50 51 52 54 56 57
46 367 47 48 49 50 51 52 54 56 57
47 288 48 49 50 51 52 53 54 55 56 57 58 59 60
48 345 49 50 51 52 53 54 55 56 57 58 59 60
49 352 50 51 52 53 54 55 56 57 58 59 60
50 279 51 52 53 54 55 56 57 58 59 60
51 369 52 53 54 55 56 57 58 59 60
52 476 53 54 55 56 57 58 59 60
53 261 54 56 57
54 263 55 56 57 58 59 60
55 479 56 57 59 60
56 254 57 58 59 60
57 267 58 59 60
58 436 59 60
59 280 60
60 284
